
Gurobi 9.5.0 (win64) logging started Tue Dec  7 12:36:02 2021

Set parameter LogFile to value "../results/logs/log_2021_12_07_12_26.csv_4_25.log"
Set parameter Method to value 3
Gurobi Optimizer version 9.5.0 build v9.5.0rc5 (win64)
Thread count: 6 physical cores, 12 logical processors, using up to 12 threads
Optimize a model with 2962 rows, 9882 columns and 30211 nonzeros
Model fingerprint: 0xf948a638
Variable types: 4941 continuous, 4941 integer (4941 binary)
Coefficient statistics:
  Matrix range     [1e+00, 4e+00]
  Objective range  [1e+00, 1e+00]
  Bounds range     [1e+00, 1e+00]
  RHS range        [1e+00, 3e+01]
Found heuristic solution: objective 36.0000000
Presolve removed 1475 rows and 7622 columns
Presolve time: 0.03s
Presolved: 1487 rows, 2260 columns, 8333 nonzeros
Variable types: 1293 continuous, 967 integer (941 binary)
Found heuristic solution: objective 45.0000000

Concurrent LP optimizer: primal simplex, dual simplex, and barrier
Showing barrier log only...

Root barrier log...

Ordering time: 0.00s

Barrier statistics:
 AA' NZ     : 6.354e+03
 Factor NZ  : 1.841e+04 (roughly 2 MB of memory)
 Factor Ops : 2.649e+05 (less than 1 second per iteration)
 Threads    : 1

                  Objective                Residual
Iter       Primal          Dual         Primal    Dual     Compl     Time
   0   4.54493558e+03  4.99156096e+03  3.96e+03 7.77e-01  1.44e+01     0s
   1   1.17186824e+03  4.92706406e+03  8.61e+02 3.55e-15  3.35e+00     0s
   2   3.98091735e+02  2.11815113e+03  1.04e+02 2.66e-15  5.46e-01     0s
   3   2.79899266e+02  5.59536013e+02  1.84e+01 4.00e-15  9.19e-02     0s
   4   2.44731813e+02  3.29506967e+02  2.91e+00 3.46e-15  2.14e-02     0s
   5   2.42929710e+02  2.77632589e+02  7.72e-01 4.28e-15  7.66e-03     0s
   6   2.43695208e+02  2.55285069e+02  2.26e-01 4.07e-15  2.45e-03     0s
   7   2.44141819e+02  2.48268817e+02  1.32e-01 4.04e-15  9.72e-04     0s
   8   2.44668953e+02  2.45579328e+02  3.08e-02 3.51e-15  2.17e-04     0s
   9   2.44890912e+02  2.44933968e+02  1.99e-03 4.83e-15  1.13e-05     0s

Barrier performed 9 iterations in 0.07 seconds (0.04 work units)
Barrier solve interrupted - model solved by another algorithm


Solved with primal simplex

Root relaxation: objective 2.449138e+02, 1184 iterations, 0.03 seconds (0.02 work units)

    Nodes    |    Current Node    |     Objective Bounds      |     Work
 Expl Unexpl |  Obj  Depth IntInf | Incumbent    BestBd   Gap | It/Node Time

     0     0  244.91380    0  593   45.00000  244.91380   444%     -    0s
H    0     0                      65.0000000  244.91380   277%     -    0s
     0     0  119.48074    0  184   65.00000  119.48074  83.8%     -    0s
     0     0  118.77717    0  175   65.00000  118.77717  82.7%     -    0s
     0     0  118.45071    0  174   65.00000  118.45071  82.2%     -    0s
     0     0  118.42868    0  164   65.00000  118.42868  82.2%     -    0s
     0     0  107.97080    0  126   65.00000  107.97080  66.1%     -    0s
     0     0  106.70624    0  130   65.00000  106.70624  64.2%     -    0s
     0     0  106.44190    0  140   65.00000  106.44190  63.8%     -    0s
     0     0  106.38862    0  132   65.00000  106.38862  63.7%     -    0s
     0     0  102.49008    0  129   65.00000  102.49008  57.7%     -    0s
     0     0  101.68349    0  139   65.00000  101.68349  56.4%     -    0s
     0     0  101.50576    0  131   65.00000  101.50576  56.2%     -    0s
     0     0  100.17615    0  182   65.00000  100.17615  54.1%     -    0s
     0     0  100.00112    0  117   65.00000  100.00112  53.8%     -    0s
     0     0   99.69822    0  139   65.00000   99.69822  53.4%     -    0s
     0     0   99.61015    0  125   65.00000   99.61015  53.2%     -    0s
     0     0   99.43740    0  110   65.00000   99.43740  53.0%     -    0s
     0     0   99.37901    0  138   65.00000   99.37901  52.9%     -    0s
     0     0   99.28701    0  102   65.00000   99.28701  52.7%     -    0s
     0     0   99.28701    0  102   65.00000   99.28701  52.7%     -    0s
     0     2   99.28701    0  102   65.00000   99.28701  52.7%     -    1s
H   69    79                      69.0000000   98.63955  43.0%  68.6    1s
H   77    79                      72.0000000   98.63955  37.0%  70.7    1s
H  136   146                      74.0000000   98.63955  33.3%  76.7    1s
H  141   146                      76.0000000   98.63955  29.8%  77.5    1s
H  167   181                      77.0000000   98.63955  28.1%  72.1    1s
H  209   221                      78.0000000   98.63955  26.5%  68.1    1s
H  328   325                      90.0000000   98.51107  9.46%  59.6    2s
H  419   344                      93.0000000   98.51107  5.93%  56.5    2s
  1583   501   94.05477   24   13   93.00000   96.77988  4.06%  56.9    5s
  3921   770   94.70496   15   59   93.00000   95.91731  3.14%  55.5   10s
  7092   596     cutoff   17        93.00000   95.10268  2.26%  50.9   15s

Cutting planes:
  Gomory: 145
  Lift-and-project: 36
  Implied bound: 16
  MIR: 746
  Inf proof: 3
  RLT: 200
  Relax-and-lift: 22

Explored 8629 nodes (420941 simplex iterations) in 16.42 seconds (19.59 work units)
Thread count was 12 (of 12 available processors)

Solution count 10: 93 90 78 ... 45

Optimal solution found (tolerance 1.00e-04)
Best objective 9.300000000000e+01, best bound 9.300000000000e+01, gap 0.0000%
